30	100	100	100
22	100	100
11	100	100
15	100	100
35	100	100
5	100	100
46	100	100
10	100	100
15	100	100
12	100	100
5	100	100
7	100	100
46	100	100
42	100	100
30	100	100
34	100	100
46	100	100
47	100	100
3	100	100
32	100	100
33	100	100
36	100	100
25	100	100
9	100	100
33	100	100
35	100	100
25	100	100
14	100	100
39	100	100
14	100	100
11	100	100
